NAME : KROB99B.25384.tour
COMMENT : Cost = 0_25384
COMMENT : Found by LKH [Keld Helsgaun] Sun Sep 17 16:52:41 2017
TYPE : TOUR
DIMENSION : 99
TOUR_SECTION
1
45
24
8
26
93
33
83
71
36
64
79
19
37
85
48
25
61
5
66
39
38
69
52
72
84
92
10
3
7
98
75
96
90
27
28
58
31
97
11
70
34
60
56
57
51
53
42
88
86
59
73
65
4
82
63
13
15
76
23
17
16
40
43
18
91
95
35
44
77
12
62
30
47
50
14
6
32
81
41
2
49
54
87
21
22
46
78
80
55
99
68
74
29
67
9
20
89
94
-1
EOF
